57
150
105	1
104	1
103	1
102	1
101	1
100	4
99	1
97	1
95	3
94	1
92	1
91	2
89	1
88	1
85	1
83	5
81	3
80	1
79	1
78	2
77	3
76	3
75	1
73	2
72	1
69	3
68	2
67	3
66	1
65	2
64	2
63	2
62	1
61	2
60	3
58	2
57	1
56	2
54	2
53	3
51	2
50	1
49	1
48	2
46	1
45	1
43	1
42	4
41	1
40	1
38	1
37	1
36	2
35	1
34	2
31	1
30	3
